5 5
1 23 0 96 4 52 3 47 2 63
2 97 0 69 1 43 3 48 4 34
3 40 2 75 0 61 4 50 1 67
0 62 3 58 4 33 1 75 2 16
4 82 2 94 3 48 0 10 1 82
-1
0 2 3 5
0 2 3 5
0 2 4 5
0 1 2 3 5
0 1 3 4 5
-2
180 264 425
228 240 414
124 332 366
73 156 158 315
82 278 363 337

444 5
15 1 6 23 12
0 18 7 24 14
5 21 11 19 4
10 16 22 3 8
20 17 2 13 9
